5 2
6 2
7 2
8 1
9 3
10 5
11 4
12 5
13 3
14 1
5 6
6 3
7 6
8 2
9 3
10 5
11 3
12 5
13 2
14 6
5 6
6 6
7 6
8 7
9 6
10 7
11 7
12 6
13 6
14 4
5 7
6 6
7 7
8 5
9 8
10 8
11 7
12 8
13 8
14 8
5 7
6 6
7 5
8 6
9 7
10 8
11 7
12 6
13 9
14 7
5 10
6 8
7 10
8 9
9 6
10 10
11 9
12 6
13 6
14 8
5 8
6 10
7 9
8 10
9 10
10 11
11 8
12 11
13 11
14 10
5 9
6 12
7 12
8 9
9 11
10 12
11 11
12 12
13 8
14 10
5 12
6 13
7 12
8 9
9 10
10 9
11 11
12 12
13 12
14 12
5 11
6 14
7 10
8 14
9 10
10 12
11 10
12 13
13 13
14 14
5 14
6 13
7 13
8 12
9 13
10 13
11 14
12 15
13 13
14 11
